# Objective value = 61
WA1n 0
WA1p 0
WA2n 1
WA2p 0
WB1n 0
WB1p 0
WB2n 0
WB2p 1
WC1n 0
WC1p 0
WC2n 0
WC2p 1
WD1n 0
WD1p 1
WD2n 0
WD2p 1
WE1n 0
WE1p 1
WE2n 0
WE2p 1
WF1n 0
WF1p 1
WF2n 0
WF2p 1
WG1n 5
WG1p 0
WH1n 6
WH1p 0
WH2n 1
WH2p 0
WI1n 0
WI1p 6
WI2n 0
WI2p 1
WJ1n 18
WJ1p 0
WT1n 5
WT1p 0
WT2n 1
WT2p 0
5 7
a 0
b 0
c 0
d 1
e 0
f 1
g 1
h 1
i 1
j 1
k 1
l 1
m 0
n 0
o 0
p 1
q 1
r 0
s 0
t 0
